# data.dat
# one way to input the data in AMPL format
# for indexed parameters, the indexes are given before the value
param m := 1 ;
param n := 2 ;

# a[1,1]=3
# a[1,2]=4
param a :=
1 1 3
1 2 4
;

# c[1]=2
# c[2]=3
param c:=
1 2
2 3
;

# b[1] = 1
param b := 
1 1 
;
